(set-logic QF_SLIA)
(declare-fun var0 () String)
(assert (not (str.in_re var0 (re.++ ((_ re.loop 14 31) (re.++ (re.union (str.to_re "\\7Y") (re.union (str.to_re "8") (re.union (str.to_re "i") (str.to_re "zLv")))) (re.++ (re.union (str.to_re "Lp") (re.union (str.to_re "a") (re.union (str.to_re "i") (str.to_re "y\\")))) (re.++ (re.union (str.to_re "z") (re.union (str.to_re "mQ]") (re.union (str.to_re "f<") (str.to_re "pJ{")))) (re.union (str.to_re "#=&") (re.union (str.to_re "GL") (re.union (str.to_re "h") (str.to_re "B")))))))) (re.++ ((_ re.loop 0 483) (re.++ (re.union (str.to_re ";[") (re.union (str.to_re "&") (re.union (str.to_re "S9Y") (str.to_re "w")))) (re.++ (re.union (str.to_re "DF") (re.union (str.to_re "{") (re.union (str.to_re "!e0") (str.to_re "RaU")))) (re.++ (re.union (str.to_re "j") (re.union (str.to_re "A[") (re.union (str.to_re "4R") (str.to_re "3x2")))) (re.union (str.to_re ":") (re.union (str.to_re "3$") (re.union (str.to_re "!@-") (str.to_re "op8")))))))) (re.++ ((_ re.loop 11 907) (re.++ (re.union (str.to_re ".vk") (re.union (str.to_re "Nw'") (re.union (str.to_re "3R") (str.to_re "F")))) (re.++ (re.union (str.to_re "V") (re.union (str.to_re "m") (re.union (str.to_re "Hb") (str.to_re "G")))) (re.++ (re.union (str.to_re "{Vg") (re.union (str.to_re "m") (re.union (str.to_re "3D") (str.to_re "SH")))) (re.union (str.to_re "D") (re.union (str.to_re "M*>") (re.union (str.to_re "*2P") (str.to_re "7l")))))))) ((_ re.loop 12 261) (re.++ (re.union (str.to_re "v") (re.union (str.to_re "'7R") (re.union (str.to_re "y") (str.to_re "Z")))) (re.++ (re.union (str.to_re ">") (re.union (str.to_re "JX") (re.union (str.to_re "u;>") (str.to_re "e]")))) (re.++ (re.union (str.to_re "py") (re.union (str.to_re "i(s") (re.union (str.to_re ",N") (str.to_re "%#,")))) (re.union (str.to_re "%'!") (re.union (str.to_re ">\\") (re.union (str.to_re "_Z") (str.to_re "?"))))))))))))))
(assert (not (str.in_re var0 (re.++ ((_ re.loop 5 521) (re.++ (re.union (str.to_re ";GD") (re.union (str.to_re "OwZ") (re.union (str.to_re "k!") (str.to_re "GE+")))) (re.++ (re.union (str.to_re ")Fi") (re.union (str.to_re "<") (re.union (str.to_re ">C,") (str.to_re "<')")))) (re.++ (re.union (str.to_re "3>V") (re.union (str.to_re "zXz") (re.union (str.to_re "c0") (str.to_re "-Bj")))) (re.union (str.to_re "X") (re.union (str.to_re ":m") (re.union (str.to_re "E") (str.to_re "oR")))))))) (re.++ ((_ re.loop 14 580) (re.++ (re.union (str.to_re "O") (re.union (str.to_re "V;K") (re.union (str.to_re "oX") (str.to_re "z")))) (re.++ (re.union (str.to_re "S") (re.union (str.to_re "_)G") (re.union (str.to_re "$FA") (str.to_re "8C~")))) (re.++ (re.union (str.to_re "%") (re.union (str.to_re ")") (re.union (str.to_re "yOc") (str.to_re "U")))) (re.union (str.to_re "jT}") (re.union (str.to_re "b") (re.union (str.to_re ",\u0022f") (str.to_re "qN=")))))))) (re.++ ((_ re.loop 14 362) (re.++ (re.union (str.to_re "L") (re.union (str.to_re "=2") (re.union (str.to_re "\u0022fZ") (str.to_re "Bn")))) (re.++ (re.union (str.to_re "]") (re.union (str.to_re "<%:") (re.union (str.to_re "kd") (str.to_re "g")))) (re.++ (re.union (str.to_re "DO") (re.union (str.to_re "T") (re.union (str.to_re "#~}") (str.to_re "-S")))) (re.union (str.to_re "9") (re.union (str.to_re "\u0022V") (re.union (str.to_re "2&") (str.to_re "q")))))))) ((_ re.loop 5 844) (re.++ (re.union (str.to_re "xR") (re.union (str.to_re "tr") (re.union (str.to_re "'") (str.to_re "J,R")))) (re.++ (re.union (str.to_re "9Gl") (re.union (str.to_re "x") (re.union (str.to_re ".q[") (str.to_re "|Ay")))) (re.++ (re.union (str.to_re "GK{") (re.union (str.to_re "y0]") (re.union (str.to_re "B>p") (str.to_re "D~")))) (re.union (str.to_re "V") (re.union (str.to_re "w7`") (re.union (str.to_re "/e>") (str.to_re "5"))))))))))))))
(assert (not (str.in_re var0 (re.++ (re.* re.allchar) (re.++ (re.union (str.to_re "<") (re.union (str.to_re ">") (re.union (str.to_re "'") (re.union (str.to_re "\u0022") (str.to_re "&"))))) (re.* re.allchar))))))
(assert (<= 50 (str.len var0)))
(check-sat)
(get-model)
